words_easy_train/words_815_UNSAT.qaiger
aag 66 16 0 1 50
32
2
14
16
26
22
24
10
28
18
4
30
20
8
12
6
132
34 30 12
36 28 10
38 26 8
40 24 6
42 25 7
44 43 41
46 23 5
48 22 4
50 20 2
52 51 49
54 53 47
56 54 44
58 57 41
60 27 9
62 61 39
64 62 59
66 65 39
68 29 11
70 69 37
72 70 67
74 73 37
76 31 13
78 77 35
80 78 75
82 81 35
84 83 16
86 33 14
88 87 85
90 32 15
92 91 16
94 93 88
96 79 74
98 97 81
100 52 47
102 21 3
104 103 100
106 55 45
108 107 57
110 63 58
112 111 109
114 112 65
116 114 104
118 116 99
120 118 95
122 93 83
124 123 89
126 71 66
128 127 73
130 129 125
132 130 120
i0 2 y1[7]
i1 1 x1[0]
i2 1 x1[6]
i3 1 x1[7]
i4 2 y1[4]
i5 2 y1[2]
i6 2 y1[3]
i7 1 x1[4]
i8 2 y1[5]
i9 2 y1[0]
i10 1 x1[1]
i11 2 y1[6]
i12 2 y1[1]
i13 1 x1[3]
i14 1 x1[5]
i15 1 x1[2]
o0 bool[0]
c
simplified
  ==
    -117
    add
      1 x1
      >> 1
        2 y1
