words_easy_train/words_815_UNSAT.qaiger.qdimacs
p cnf 66 151
a 1 2 3 4 5 6 7 8 0
e 9 10 11 12 13 14 15 16 17 18 19 20 21 22 23 24 25 26 27 28 29 30 31 32 33 34 35 36 37 38 39 40 41 42 43 44 45 46 47 48 49 50 51 52 53 54 55 56 57 58 59 60 61 62 63 64 65 66 0
-15 -6 17 0
15 -17 0
6 -17 0
-14 -5 18 0
14 -18 0
5 -18 0
-13 -4 19 0
13 -19 0
4 -19 0
-12 -3 20 0
12 -20 0
3 -20 0
12 3 21 0
-12 -21 0
-3 -21 0
21 20 22 0
-21 -22 0
-20 -22 0
11 2 23 0
-11 -23 0
-2 -23 0
-11 -2 24 0
11 -24 0
2 -24 0
-10 -1 25 0
10 -25 0
1 -25 0
25 24 26 0
-25 -26 0
-24 -26 0
26 23 27 0
-26 -27 0
-23 -27 0
-27 -22 28 0
27 -28 0
22 -28 0
28 20 29 0
-28 -29 0
-20 -29 0
13 4 30 0
-13 -30 0
-4 -30 0
30 19 31 0
-30 -31 0
-19 -31 0
-31 29 32 0
31 -32 0
-29 -32 0
32 19 33 0
-32 -33 0
-19 -33 0
14 5 34 0
-14 -34 0
-5 -34 0
34 18 35 0
-34 -35 0
-18 -35 0
-35 33 36 0
35 -36 0
-33 -36 0
36 18 37 0
-36 -37 0
-18 -37 0
15 6 38 0
-15 -38 0
-6 -38 0
38 17 39 0
-38 -39 0
-17 -39 0
-39 37 40 0
39 -40 0
-37 -40 0
40 17 41 0
-40 -41 0
-17 -41 0
41 -8 42 0
-41 -42 0
8 -42 0
16 -7 43 0
-16 -43 0
7 -43 0
43 42 44 0
-43 -44 0
-42 -44 0
-16 7 45 0
16 -45 0
-7 -45 0
45 -8 46 0
-45 -46 0
8 -46 0
46 -44 47 0
-46 -47 0
44 -47 0
39 -37 48 0
-39 -48 0
37 -48 0
48 40 49 0
-48 -49 0
-40 -49 0
-26 23 50 0
26 -50 0
-23 -50 0
10 1 51 0
-10 -51 0
-1 -51 0
51 -50 52 0
-51 -52 0
50 -52 0
27 22 53 0
-27 -53 0
-22 -53 0
53 28 54 0
-53 -54 0
-28 -54 0
31 -29 55 0
-31 -55 0
29 -55 0
55 54 56 0
-55 -56 0
-54 -56 0
-56 32 57 0
56 -57 0
-32 -57 0
-57 -52 58 0
57 -58 0
52 -58 0
-58 49 59 0
58 -59 0
-49 -59 0
-59 47 60 0
59 -60 0
-47 -60 0
46 41 61 0
-46 -61 0
-41 -61 0
61 44 62 0
-61 -62 0
-44 -62 0
35 -33 63 0
-35 -63 0
33 -63 0
63 36 64 0
-63 -64 0
-36 -64 0
64 62 65 0
-64 -65 0
-62 -65 0
-65 -60 66 0
65 -66 0
60 -66 0
66 0
